NAME          DCAP_3_4_2_500_SS87
ROWS
 N  OBJ
 L  CON1
 L  CON2
 L  CON3
 L  CON4
 L  CON5
 L  CON6
 L  CON7
 L  CON8
 L  CON9
 L  CON10
 L  CON11
 L  CON12
 E  CON13
 E  CON14
 E  CON15
 E  CON16
 E  CON17
 E  CON18
 E  CON19
 E  CON20
COLUMNS
    x[1,1]    OBJ       6.180167      CON1      1.000000    
    x[1,1]    CON7      -1.000000     CON8      -1.000000   
    x[1,2]    OBJ       5.039546      CON2      1.000000    
    x[1,2]    CON8      -1.000000   
    x[2,1]    OBJ       6.732585      CON3      1.000000    
    x[2,1]    CON9      -1.000000     CON10     -1.000000   
    x[2,2]    OBJ       7.443064      CON4      1.000000    
    x[2,2]    CON10     -1.000000   
    x[3,1]    OBJ       6.563535      CON5      1.000000    
    x[3,1]    CON11     -1.000000     CON12     -1.000000   
    x[3,2]    OBJ       6.054841      CON6      1.000000    
    x[3,2]    CON12     -1.000000   
    MARKER    'MARKER'                'INTORG'
    u[1,1]    OBJ       48.076654     CON1      -1.000000   
    u[1,2]    OBJ       49.466655     CON2      -1.000000   
    u[2,1]    OBJ       49.996186     CON3      -1.000000   
    u[2,2]    OBJ       32.230043     CON4      -1.000000   
    u[3,1]    OBJ       20.066487     CON5      -1.000000   
    u[3,2]    OBJ       27.484319     CON6      -1.000000   
    y[1,1,1]  OBJ       8.206164      CON7      1.288110    
    y[1,1,1]  CON13     1.000000    
    y[1,1,2]  OBJ       5.928949      CON8      1.437037    
    y[1,1,2]  CON14     1.000000    
    y[1,2,1]  OBJ       5.473475      CON7      0.632817    
    y[1,2,1]  CON15     1.000000    
    y[1,2,2]  OBJ       9.915403      CON8      1.453896    
    y[1,2,2]  CON16     1.000000    
    y[1,3,1]  OBJ       5.989927      CON7      1.251986    
    y[1,3,1]  CON17     1.000000    
    y[1,3,2]  OBJ       7.277963      CON8      0.554530    
    y[1,3,2]  CON18     1.000000    
    y[1,4,1]  OBJ       9.452882      CON7      0.858750    
    y[1,4,1]  CON19     1.000000    
    y[1,4,2]  OBJ       9.455713      CON8      0.992410    
    y[1,4,2]  CON20     1.000000    
    y[2,1,1]  OBJ       5.669874      CON9      1.288110    
    y[2,1,1]  CON13     1.000000    
    y[2,1,2]  OBJ       9.553165      CON10     1.437037    
    y[2,1,2]  CON14     1.000000    
    y[2,2,1]  OBJ       5.595746      CON9      0.632817    
    y[2,2,1]  CON15     1.000000    
    y[2,2,2]  OBJ       7.469342      CON10     1.453896    
    y[2,2,2]  CON16     1.000000    
    y[2,3,1]  OBJ       7.192709      CON9      1.251986    
    y[2,3,1]  CON17     1.000000    
    y[2,3,2]  OBJ       9.117418      CON10     0.554530    
    y[2,3,2]  CON18     1.000000    
    y[2,4,1]  OBJ       8.069355      CON9      0.858750    
    y[2,4,1]  CON19     1.000000    
    y[2,4,2]  OBJ       7.907236      CON10     0.992410    
    y[2,4,2]  CON20     1.000000    
    y[3,1,1]  OBJ       6.804711      CON11     1.288110    
    y[3,1,1]  CON13     1.000000    
    y[3,1,2]  OBJ       6.387084      CON12     1.437037    
    y[3,1,2]  CON14     1.000000    
    y[3,2,1]  OBJ       9.709510      CON11     0.632817    
    y[3,2,1]  CON15     1.000000    
    y[3,2,2]  OBJ       7.799436      CON12     1.453896    
    y[3,2,2]  CON16     1.000000    
    y[3,3,1]  OBJ       5.828299      CON11     1.251986    
    y[3,3,1]  CON17     1.000000    
    y[3,3,2]  OBJ       5.167696      CON12     0.554530    
    y[3,3,2]  CON18     1.000000    
    y[3,4,1]  OBJ       9.321407      CON11     0.858750    
    y[3,4,1]  CON19     1.000000    
    y[3,4,2]  OBJ       6.103955      CON12     0.992410    
    y[3,4,2]  CON20     1.000000    
    z[1,1]    OBJ       811.532417    CON13     1.000000    
    z[1,2]    OBJ       575.309172    CON14     1.000000    
    z[2,1]    OBJ       877.259207    CON15     1.000000    
    z[2,2]    OBJ       590.390285    CON16     1.000000    
    z[3,1]    OBJ       987.267349    CON17     1.000000    
    z[3,2]    OBJ       943.206329    CON18     1.000000    
    z[4,1]    OBJ       585.704935    CON19     1.000000    
    z[4,2]    OBJ       538.446857    CON20     1.000000    
    MARKER    'MARKER'                 'INTEND'
RHS
    RHS       CON1      -0.000000     CON2      -0.000000   
    RHS       CON3      -0.000000     CON4      -0.000000   
    RHS       CON5      -0.000000     CON6      -0.000000   
    RHS       CON7      -0.000000     CON8      -0.000000   
    RHS       CON9      -0.000000     CON10     -0.000000   
    RHS       CON11     -0.000000     CON12     -0.000000   
    RHS       CON13     1.000000      CON14     1.000000    
    RHS       CON15     1.000000      CON16     1.000000    
    RHS       CON17     1.000000      CON18     1.000000    
    RHS       CON19     1.000000      CON20     1.000000    
BOUNDS
 BV BOUND     u[1,1]  
 BV BOUND     u[1,2]  
 BV BOUND     u[2,1]  
 BV BOUND     u[2,2]  
 BV BOUND     u[3,1]  
 BV BOUND     u[3,2]  
 BV BOUND     y[1,1,1]
 BV BOUND     y[1,1,2]
 BV BOUND     y[1,2,1]
 BV BOUND     y[1,2,2]
 BV BOUND     y[1,3,1]
 BV BOUND     y[1,3,2]
 BV BOUND     y[1,4,1]
 BV BOUND     y[1,4,2]
 BV BOUND     y[2,1,1]
 BV BOUND     y[2,1,2]
 BV BOUND     y[2,2,1]
 BV BOUND     y[2,2,2]
 BV BOUND     y[2,3,1]
 BV BOUND     y[2,3,2]
 BV BOUND     y[2,4,1]
 BV BOUND     y[2,4,2]
 BV BOUND     y[3,1,1]
 BV BOUND     y[3,1,2]
 BV BOUND     y[3,2,1]
 BV BOUND     y[3,2,2]
 BV BOUND     y[3,3,1]
 BV BOUND     y[3,3,2]
 BV BOUND     y[3,4,1]
 BV BOUND     y[3,4,2]
 BV BOUND     z[1,1]  
 BV BOUND     z[1,2]  
 BV BOUND     z[2,1]  
 BV BOUND     z[2,2]  
 BV BOUND     z[3,1]  
 BV BOUND     z[3,2]  
 BV BOUND     z[4,1]  
 BV BOUND     z[4,2]  
ENDATA
